WARNING: for repeatability, setting FPU to use double precision
============================[ Problem Statistics ]=============================
|                                                                             |
|  Number of variables:        134781                                         |
|  Number of clauses:          648661                                         |
|  Parse time:                   0.14 s                                       |
|                                                                             |
c ============================[ Search Statistics ]==============================
c | Conflicts |          ORIGINAL         |          LEARNT          | Progress |
c |           |    Vars  Clauses Literals |    Limit  Clauses Lit/Cl |          |
c ===============================================================================
c Switched to VSIDS.
c Switched to LRB.
c Switched to VSIDS.
c ===============================================================================
restarts                  : 285
conflicts                 : 108333         (78 /sec)
decisions                 : 15759408       (0.00 % random) (11279 /sec)
propagations              : 2842678126     (2034588 /sec)
conflict literals         : 13556559       (45.56 % deleted)

conflicts w/ DIP found    : 74930          (69.17 % of conflicts)
conflicts w/ dangerous DIP: 0              (0.00 % of conflicts)
conflicts w/ DIP-learning : 16             (0.01 % of conflicts)
decisions on ext vars     : 702            (0.00 % of decisions)
total ext vars            : 12          
tried delete ext vars     : 3           
deleted ext vars          : 3           
max ext vars              : 9           

Memory used               : 175.00 MB
CPU time                  : 1397.18 s
DIP computation time      : 183.522 s (13.14 % of total time)
ER_sel time               : 0.197346 s
ER_add time               : 0.000539 s
ER_delC time              : 0 s
ER_delV time              : 0.001748 s
ER_sub time               : 0.253617 s
ER_stat time              : 0 s

UNSATISFIABLE
